RSW06
Position Depot: Center
Horizon for Depot: Small
Position of customers: Random
Distribution of the demand: Small
Width of time windows: Wide
Distribution of the service: Large

VEHICLE 
NUMBER 	 CAPACITY 
 5 	 	 75 
 
CUSTOMER
CUST NO. 	 XCOORD.  	 YCOORD. 	 DEMAND 	 READY TIME 	 DUE DATE 	 SERVICE TIME 
 0 	 	 500 	 	 500 	 	 0 	 	 0 	 	 2129 	 	 0 
  1 	 	 970 	 	 62 	 	 9 	 	 1690 	 	 2031 	 	 185 
  2 	 	 693 	 	 474 	 	 8 	 	 1731 	 	 2117 	 	 154 
  3 	 	 433 	 	 69 	 	 6 	 	 1297 	 	 1525 	 	 141 
  4 	 	 106 	 	 684 	 	 8 	 	 1760 	 	 2129 	 	 118 
  5 	 	 927 	 	 207 	 	 5 	 	 871 	 	 1325 	 	 162 
  6 	 	 479 	 	 326 	 	 8 	 	 102 	 	 554 	 	 176 
  7 	 	 286 	 	 745 	 	 9 	 	 218 	 	 710 	 	 116 
  8 	 	 913 	 	 426 	 	 5 	 	 394 	 	 789 	 	 112 
  9 	 	 433 	 	 941 	 	 10 	 	 755 	 	 1030 	 	 100 
  10 	 	 573 	 	 695 	 	 9 	 	 334 	 	 585 	 	 110 
  11 	 	 660 	 	 338 	 	 5 	 	 1326 	 	 1739 	 	 187 
  12 	 	 404 	 	 76 	 	 8 	 	 1670 	 	 2023 	 	 195 
  13 	 	 797 	 	 446 	 	 8 	 	 1390 	 	 1868 	 	 177 
  14 	 	 136 	 	 468 	 	 9 	 	 1731 	 	 2129 	 	 113 
  15 	 	 340 	 	 284 	 	 10 	 	 410 	 	 745 	 	 184 
  16 	 	 44 	 	 96 	 	 6 	 	 468 	 	 670 	 	 141 
  17 	 	 346 	 	 42 	 	 6 	 	 1515 	 	 1939 	 	 179 
  18 	 	 17 	 	 441 	 	 9 	 	 1514 	 	 1776 	 	 186 
  19 	 	 404 	 	 58 	 	 5 	 	 397 	 	 719 	 	 164 
  20 	 	 497 	 	 664 	 	 8 	 	 1152 	 	 1417 	 	 136 
  21 	 	 626 	 	 142 	 	 9 	 	 331 	 	 814 	 	 118 
  22 	 	 777 	 	 149 	 	 9 	 	 819 	 	 1120 	 	 103 
  23 	 	 852 	 	 972 	 	 6 	 	 1643 	 	 2129 	 	 158 
  24 	 	 806 	 	 372 	 	 8 	 	 1517 	 	 1988 	 	 100 
  25 	 	 1000 	 	 430 	 	 6 	 	 1384 	 	 1720 	 	 179 
  26 	 	 958 	 	 964 	 	 5 	 	 1198 	 	 1453 	 	 165 
  27 	 	 878 	 	 842 	 	 6 	 	 1589 	 	 1920 	 	 116 
  28 	 	 904 	 	 533 	 	 8 	 	 1340 	 	 1668 	 	 115 
  29 	 	 897 	 	 754 	 	 10 	 	 183 	 	 562 	 	 151 
  30 	 	 452 	 	 373 	 	 8 	 	 1705 	 	 2129 	 	 163 
  31 	 	 385 	 	 549 	 	 5 	 	 -29 	 	 420 	 	 141 
  32 	 	 781 	 	 236 	 	 5 	 	 45 	 	 424 	 	 109 
  33 	 	 732 	 	 183 	 	 10 	 	 1815 	 	 2077 	 	 129 
  34 	 	 148 	 	 470 	 	 10 	 	 166 	 	 451 	 	 180 
  35 	 	 285 	 	 774 	 	 8 	 	 1346 	 	 1641 	 	 129 
  36 	 	 44 	 	 299 	 	 10 	 	 1577 	 	 2055 	 	 170 
  37 	 	 927 	 	 464 	 	 9 	 	 991 	 	 1316 	 	 101 
  38 	 	 311 	 	 481 	 	 6 	 	 662 	 	 962 	 	 123 
  39 	 	 313 	 	 73 	 	 7 	 	 490 	 	 890 	 	 180 
  40 	 	 816 	 	 896 	 	 9 	 	 1092 	 	 1384 	 	 158 
  41 	 	 911 	 	 957 	 	 8 	 	 294 	 	 676 	 	 177 
  42 	 	 365 	 	 236 	 	 5 	 	 457 	 	 889 	 	 179 
  43 	 	 128 	 	 965 	 	 7 	 	 1445 	 	 1721 	 	 143 
  44 	 	 351 	 	 256 	 	 5 	 	 439 	 	 735 	 	 132 
  45 	 	 218 	 	 641 	 	 5 	 	 128 	 	 346 	 	 158 
  46 	 	 291 	 	 227 	 	 9 	 	 329 	 	 568 	 	 177 
  47 	 	 153 	 	 873 	 	 6 	 	 621 	 	 836 	 	 155 
  48 	 	 160 	 	 175 	 	 8 	 	 1200 	 	 1426 	 	 157 
  49 	 	 633 	 	 514 	 	 7 	 	 927 	 	 1423 	 	 116 
  50 	 	 994 	 	 556 	 	 9 	 	 222 	 	 546 	 	 114 
 